% seed = 1051278

mint = 66;
% maxt = 204;

nActs = 42;
dur = [0,3,1,8,9,2,1,9,9,9,1,5,2,2,4,8,2,4,5,6,2,10,9,2,3,2,8,7,2,10,9,3,6,2,8,3,2,10,10,4,2,0];

nSkills = 4;
sreq = [| 0,0,0,0,
	| 0,1,3,0,
	| 4,2,0,0,
	| 0,2,4,0,
	| 0,4,0,7,
	| 0,4,7,0,
	| 4,0,0,4,
	| 0,4,0,4,
	| 5,0,2,0,
	| 0,2,0,6,
	| 0,0,5,2,
	| 7,0,0,3,
	| 0,7,6,0,
	| 3,0,3,0,
	| 3,4,0,0,
	| 0,6,0,5,
	| 3,2,0,0,
	| 0,6,0,4,
	| 0,0,4,3,
	| 5,0,0,4,
	| 0,7,2,0,
	| 0,4,5,0,
	| 0,0,3,2,
	| 0,0,4,5,
	| 0,6,0,2,
	| 0,0,3,2,
	| 0,1,0,7,
	| 4,3,0,0,
	| 5,0,5,0,
	| 4,0,0,6,
	| 5,0,4,0,
	| 0,2,0,4,
	| 6,0,2,0,
	| 3,0,7,0,
	| 6,5,0,0,
	| 3,0,0,4,
	| 0,4,0,3,
	| 4,0,3,0,
	| 2,5,0,0,
	| 0,4,0,4,
	| 4,2,0,0,
	| 0,0,0,0, |];

nResources = 30;
mastery = [| false,true,false,true,
	| true,false,true,true,
	| false,true,false,false,
	| true,true,false,true,
	| false,false,true,true,
	| true,false,false,true,
	| true,false,false,true,
	| false,true,false,false,
	| true,true,false,true,
	| false,true,true,true,
	| false,false,false,true,
	| false,false,true,true,
	| true,true,false,false,
	| true,true,false,true,
	| false,false,true,false,
	| true,true,false,true,
	| false,true,true,true,
	| false,true,false,false,
	| true,true,true,false,
	| true,false,true,false,
	| false,true,true,false,
	| true,false,false,false,
	| true,true,true,false,
	| false,true,true,true,
	| true,true,false,true,
	| true,true,false,false,
	| false,true,true,true,
	| false,true,true,true,
	| false,false,false,true,
	| false,false,true,true, |];

nPrecs = 85;
pred = [1,1,1,2,2,2,3,3,3,4,4,4,5,5,5,6,6,6,7,7,7,8,8,9,9,10,10,10,11,11,12,13,13,14,14,15,15,15,16,16,16,17,17,18,18,18,19,19,19,20,20,20,21,21,21,22,22,23,23,23,24,25,25,26,27,28,28,29,29,29,30,31,32,32,32,33,34,34,35,36,37,38,39,40,41];
succ = [2,3,4,11,35,8,9,11,5,9,13,16,12,6,16,19,14,7,10,22,8,36,32,12,30,18,20,15,26,21,27,17,38,27,29,25,28,29,35,23,24,39,31,21,23,32,26,22,32,25,27,23,34,28,24,33,29,34,28,26,25,33,36,41,36,30,40,34,30,40,37,35,33,38,40,37,41,39,37,38,39,41,42,42,42];

nUnrels = 403;
unpred = [2,2,2,2,2,2,2,2,2,2,2,2,2,2,2,2,2,2,2,2,2,3,3,3,3,4,4,4,4,4,4,4,4,4,4,4,4,4,4,4,5,5,5,5,5,6,6,6,6,6,6,6,6,7,7,7,7,7,7,7,7,7,7,8,8,8,8,8,8,8,8,8,8,8,8,8,8,8,8,8,8,8,8,8,8,8,8,8,9,9,9,9,9,9,9,9,9,9,9,9,9,9,9,9,9,9,9,9,9,9,9,9,10,10,10,10,10,10,10,10,10,10,11,11,11,11,11,11,11,11,11,11,11,11,11,11,11,11,12,12,12,12,12,12,12,12,12,12,12,12,12,12,12,12,12,12,12,12,12,12,12,12,12,13,13,13,13,13,13,13,13,13,13,13,13,13,13,13,13,13,13,13,13,13,14,14,14,14,14,14,14,14,14,14,14,14,14,14,14,14,14,15,15,15,15,15,15,15,15,15,15,15,15,15,15,16,16,16,16,16,16,16,16,16,16,17,17,17,17,17,17,17,17,17,17,17,17,17,17,17,17,17,17,17,17,18,18,18,18,18,18,18,19,19,19,19,19,19,19,19,19,19,20,20,20,20,20,20,20,21,21,21,21,21,21,21,21,22,22,22,22,22,22,22,22,22,22,22,23,23,23,23,23,23,23,23,23,23,24,24,24,24,24,24,24,24,24,24,25,25,25,25,25,25,25,25,25,25,26,26,26,26,26,26,26,26,26,26,26,26,26,26,27,27,27,27,27,27,27,27,27,27,27,28,28,28,28,28,28,28,28,28,29,29,29,29,29,29,30,30,30,30,30,30,30,30,30,31,31,31,31,31,31,31,32,32,32,33,33,33,33,33,33,34,34,34,34,34,35,35,35,35,36,36,36,37,37,37,38,38,39,39,40];
unsucc = [3,4,5,6,7,9,10,12,13,14,15,16,17,18,19,20,22,23,27,29,31,4,13,17,31,5,6,7,8,10,11,14,15,18,19,20,21,22,29,32,9,11,13,17,31,9,11,12,13,16,17,31,35,9,11,12,13,14,16,17,19,31,35,9,10,11,12,13,14,15,16,17,18,19,20,21,22,23,24,25,26,27,28,29,30,31,34,35,10,11,13,14,15,16,17,18,19,20,21,22,23,24,25,26,28,29,31,32,33,34,35,40,11,12,13,14,16,17,19,22,31,35,12,13,14,15,16,17,18,19,20,22,23,27,29,31,32,35,13,14,15,16,17,18,19,20,21,22,23,24,25,26,28,29,30,31,32,33,34,35,37,39,40,14,15,16,18,19,20,21,22,23,24,25,26,27,28,29,30,32,33,34,36,40,15,16,17,18,19,20,21,22,23,24,25,26,28,31,32,33,35,16,17,18,19,20,21,22,23,24,26,27,31,32,35,17,18,19,20,21,22,27,29,31,32,18,19,20,21,22,23,24,25,26,27,28,29,30,32,33,34,36,38,40,41,19,20,22,27,29,31,35,20,21,23,24,25,27,28,31,35,36,21,22,24,29,31,32,35,22,23,26,27,29,31,32,35,23,24,25,26,27,28,31,32,35,36,38,24,25,27,29,31,32,33,35,36,38,26,27,28,29,30,31,32,34,35,40,26,27,28,29,30,31,32,34,35,40,27,28,29,30,31,32,33,34,35,36,37,38,39,40,28,29,30,31,32,33,34,35,37,39,40,29,31,32,33,34,35,36,38,41,31,32,33,35,36,38,31,32,33,34,35,36,38,40,41,32,33,34,36,38,40,41,34,35,36,34,35,36,38,40,41,35,36,37,38,40,36,38,40,41,37,39,40,38,40,41,39,40,40,41,41];

USEFUL_RES = [{},
	{1,2,3,4,5,8,9,10,12,13,14,15,16,17,18,19,20,21,23,24,25,26,27,28,30},
	{1,2,3,4,6,7,8,9,10,13,14,16,17,18,19,20,21,22,23,24,25,26,27,28},
	{1,2,3,4,5,8,9,10,12,13,14,15,16,17,18,19,20,21,23,24,25,26,27,28,30},
	{1,2,3,4,5,6,7,8,9,10,11,12,13,14,16,17,18,19,21,23,24,25,26,27,28,29,30},
	{1,2,3,4,5,8,9,10,12,13,14,15,16,17,18,19,20,21,23,24,25,26,27,28,30},
	{1,2,4,5,6,7,9,10,11,12,13,14,16,17,19,20,22,23,24,25,26,27,28,29,30},
	{1,2,3,4,5,6,7,8,9,10,11,12,13,14,16,17,18,19,21,23,24,25,26,27,28,29,30},
	{2,4,5,6,7,9,10,12,13,14,15,16,17,19,20,21,22,23,24,25,26,27,28,30},
	{1,2,3,4,5,6,7,8,9,10,11,12,13,14,16,17,18,19,21,23,24,25,26,27,28,29,30},
	{1,2,4,5,6,7,9,10,11,12,14,15,16,17,19,20,21,23,24,25,27,28,29,30},
	{1,2,4,5,6,7,9,10,11,12,13,14,16,17,19,20,22,23,24,25,26,27,28,29,30},
	{1,2,3,4,5,8,9,10,12,13,14,15,16,17,18,19,20,21,23,24,25,26,27,28,30},
	{2,4,5,6,7,9,10,12,13,14,15,16,17,19,20,21,22,23,24,25,26,27,28,30},
	{1,2,3,4,6,7,8,9,10,13,14,16,17,18,19,20,21,22,23,24,25,26,27,28},
	{1,2,3,4,5,6,7,8,9,10,11,12,13,14,16,17,18,19,21,23,24,25,26,27,28,29,30},
	{1,2,3,4,6,7,8,9,10,13,14,16,17,18,19,20,21,22,23,24,25,26,27,28},
	{1,2,3,4,5,6,7,8,9,10,11,12,13,14,16,17,18,19,21,23,24,25,26,27,28,29,30},
	{1,2,4,5,6,7,9,10,11,12,14,15,16,17,19,20,21,23,24,25,27,28,29,30},
	{1,2,4,5,6,7,9,10,11,12,13,14,16,17,19,20,22,23,24,25,26,27,28,29,30},
	{1,2,3,4,5,8,9,10,12,13,14,15,16,17,18,19,20,21,23,24,25,26,27,28,30},
	{1,2,3,4,5,8,9,10,12,13,14,15,16,17,18,19,20,21,23,24,25,26,27,28,30},
	{1,2,4,5,6,7,9,10,11,12,14,15,16,17,19,20,21,23,24,25,27,28,29,30},
	{1,2,4,5,6,7,9,10,11,12,14,15,16,17,19,20,21,23,24,25,27,28,29,30},
	{1,2,3,4,5,6,7,8,9,10,11,12,13,14,16,17,18,19,21,23,24,25,26,27,28,29,30},
	{1,2,4,5,6,7,9,10,11,12,14,15,16,17,19,20,21,23,24,25,27,28,29,30},
	{1,2,3,4,5,6,7,8,9,10,11,12,13,14,16,17,18,19,21,23,24,25,26,27,28,29,30},
	{1,2,3,4,6,7,8,9,10,13,14,16,17,18,19,20,21,22,23,24,25,26,27,28},
	{2,4,5,6,7,9,10,12,13,14,15,16,17,19,20,21,22,23,24,25,26,27,28,30},
	{1,2,4,5,6,7,9,10,11,12,13,14,16,17,19,20,22,23,24,25,26,27,28,29,30},
	{2,4,5,6,7,9,10,12,13,14,15,16,17,19,20,21,22,23,24,25,26,27,28,30},
	{1,2,3,4,5,6,7,8,9,10,11,12,13,14,16,17,18,19,21,23,24,25,26,27,28,29,30},
	{2,4,5,6,7,9,10,12,13,14,15,16,17,19,20,21,22,23,24,25,26,27,28,30},
	{2,4,5,6,7,9,10,12,13,14,15,16,17,19,20,21,22,23,24,25,26,27,28,30},
	{1,2,3,4,6,7,8,9,10,13,14,16,17,18,19,20,21,22,23,24,25,26,27,28},
	{1,2,4,5,6,7,9,10,11,12,13,14,16,17,19,20,22,23,24,25,26,27,28,29,30},
	{1,2,3,4,5,6,7,8,9,10,11,12,13,14,16,17,18,19,21,23,24,25,26,27,28,29,30},
	{2,4,5,6,7,9,10,12,13,14,15,16,17,19,20,21,22,23,24,25,26,27,28,30},
	{1,2,3,4,6,7,8,9,10,13,14,16,17,18,19,20,21,22,23,24,25,26,27,28},
	{1,2,3,4,5,6,7,8,9,10,11,12,13,14,16,17,18,19,21,23,24,25,26,27,28,29,30},
	{1,2,3,4,6,7,8,9,10,13,14,16,17,18,19,20,21,22,23,24,25,26,27,28},
	{}];

POTENTIAL_ACT = [{2,3,4,5,6,7,8,10,11,12,13,15,16,17,18,19,20,21,22,23,24,25,26,27,28,30,32,35,36,37,39,40,41},
	{2,3,4,5,6,7,8,9,10,11,12,13,14,15,16,17,18,19,20,21,22,23,24,25,26,27,28,29,30,31,32,33,34,35,36,37,38,39,40,41},
	{2,3,4,5,6,8,10,13,15,16,17,18,21,22,25,27,28,32,35,37,39,40,41},
	{2,3,4,5,6,7,8,9,10,11,12,13,14,15,16,17,18,19,20,21,22,23,24,25,26,27,28,29,30,31,32,33,34,35,36,37,38,39,40,41},
	{2,4,5,6,7,8,9,10,11,12,13,14,16,18,19,20,21,22,23,24,25,26,27,29,30,31,32,33,34,36,37,38,40},
	{3,5,7,8,9,10,11,12,14,15,16,17,18,19,20,23,24,25,26,27,28,29,30,31,32,33,34,35,36,37,38,39,40,41},
	{3,5,7,8,9,10,11,12,14,15,16,17,18,19,20,23,24,25,26,27,28,29,30,31,32,33,34,35,36,37,38,39,40,41},
	{2,3,4,5,6,8,10,13,15,16,17,18,21,22,25,27,28,32,35,37,39,40,41},
	{2,3,4,5,6,7,8,9,10,11,12,13,14,15,16,17,18,19,20,21,22,23,24,25,26,27,28,29,30,31,32,33,34,35,36,37,38,39,40,41},
	{2,3,4,5,6,7,8,9,10,11,12,13,14,15,16,17,18,19,20,21,22,23,24,25,26,27,28,29,30,31,32,33,34,35,36,37,38,39,40,41},
	{5,7,8,10,11,12,16,18,19,20,23,24,25,26,27,30,32,36,37,40},
	{2,4,5,6,7,8,9,10,11,12,13,14,16,18,19,20,21,22,23,24,25,26,27,29,30,31,32,33,34,36,37,38,40},
	{2,3,4,5,6,7,8,9,10,12,13,14,15,16,17,18,20,21,22,25,27,28,29,30,31,32,33,34,35,36,37,38,39,40,41},
	{2,3,4,5,6,7,8,9,10,11,12,13,14,15,16,17,18,19,20,21,22,23,24,25,26,27,28,29,30,31,32,33,34,35,36,37,38,39,40,41},
	{2,4,6,9,11,13,14,19,21,22,23,24,26,29,31,33,34,38},
	{2,3,4,5,6,7,8,9,10,11,12,13,14,15,16,17,18,19,20,21,22,23,24,25,26,27,28,29,30,31,32,33,34,35,36,37,38,39,40,41},
	{2,3,4,5,6,7,8,9,10,11,12,13,14,15,16,17,18,19,20,21,22,23,24,25,26,27,28,29,30,31,32,33,34,35,36,37,38,39,40,41},
	{2,3,4,5,6,8,10,13,15,16,17,18,21,22,25,27,28,32,35,37,39,40,41},
	{2,3,4,5,6,7,8,9,10,11,12,13,14,15,16,17,18,19,20,21,22,23,24,25,26,27,28,29,30,31,32,33,34,35,36,37,38,39,40,41},
	{2,3,4,6,7,9,11,12,13,14,15,17,19,20,21,22,23,24,26,28,29,30,31,33,34,35,36,38,39,41},
	{2,3,4,5,6,8,9,10,11,13,14,15,16,17,18,19,21,22,23,24,25,26,27,28,29,31,32,33,34,35,37,38,39,40,41},
	{3,7,9,12,14,15,17,20,28,29,30,31,33,34,35,36,38,39,41},
	{2,3,4,5,6,7,8,9,10,11,12,13,14,15,16,17,18,19,20,21,22,23,24,25,26,27,28,29,30,31,32,33,34,35,36,37,38,39,40,41},
	{2,3,4,5,6,7,8,9,10,11,12,13,14,15,16,17,18,19,20,21,22,23,24,25,26,27,28,29,30,31,32,33,34,35,36,37,38,39,40,41},
	{2,3,4,5,6,7,8,9,10,11,12,13,14,15,16,17,18,19,20,21,22,23,24,25,26,27,28,29,30,31,32,33,34,35,36,37,38,39,40,41},
	{2,3,4,5,6,7,8,9,10,12,13,14,15,16,17,18,20,21,22,25,27,28,29,30,31,32,33,34,35,36,37,38,39,40,41},
	{2,3,4,5,6,7,8,9,10,11,12,13,14,15,16,17,18,19,20,21,22,23,24,25,26,27,28,29,30,31,32,33,34,35,36,37,38,39,40,41},
	{2,3,4,5,6,7,8,9,10,11,12,13,14,15,16,17,18,19,20,21,22,23,24,25,26,27,28,29,30,31,32,33,34,35,36,37,38,39,40,41},
	{5,7,8,10,11,12,16,18,19,20,23,24,25,26,27,30,32,36,37,40},
	{2,4,5,6,7,8,9,10,11,12,13,14,16,18,19,20,21,22,23,24,25,26,27,29,30,31,32,33,34,36,37,38,40}];
